%%%%%%%%%%%%%%%%%%%%%%%%%%%%%%%%%%%%%%%%%%%%%%%%%%%%%%%%%%%%%%%%%%%%%%%%%
%FILE DATA:	Soccer Computational Problem for MiniZinc Models	%
%AUTHORS:	Robinson Duque, Alejandro Arbelaez, Juan Francisco Díaz	%
%CONTACT:  	robinson.duque@correounivalle.edu.co			%
%LAST UPDATE:	October, 2016						%
%DESCRIPTION: 	fixture 20 with 3 suppositions				%
%%%%%%%%%%%%%%%%%%%%%%%%%%%%%%%%%%%%%%%%%%%%%%%%%%%%%%%%%%%%%%%%%%%%%%%%%
n=30;%number of teams

%For the purpose of our models, we offer two representations of the games to play, namely fixtures and games:

%Fixtures to play:
fixtures=[|0,0,0,0,0,0,0,0,2,1,1,0,0,1,1,1,0,1,0,0,0,1,0,0,1,0,0,0,0,0
|0,0,0,0,1,0,1,0,1,0,0,0,0,0,0,0,0,1,1,0,1,0,1,1,0,0,1,1,0,0
|0,0,0,1,0,0,0,1,0,2,0,0,0,0,0,0,0,0,1,0,1,0,1,0,1,0,1,1,0,0
|0,0,1,0,0,2,0,0,0,0,0,1,1,0,0,0,1,0,0,1,0,0,0,1,0,1,0,0,1,0
|0,1,0,0,0,0,1,0,1,0,0,1,0,0,0,1,0,0,1,0,1,0,1,1,0,0,0,1,0,0
|0,0,0,2,0,0,0,1,0,1,1,0,0,1,0,0,0,0,1,0,0,0,1,0,1,0,1,0,0,0
|0,1,0,0,1,0,0,0,1,0,0,1,1,0,0,0,0,0,0,0,1,1,1,1,0,0,0,1,0,0
|0,0,1,0,0,1,0,0,0,0,0,1,1,0,0,0,1,0,0,1,0,0,0,0,0,1,0,0,2,1
|2,1,0,0,1,0,1,0,0,0,0,0,0,0,1,1,0,1,0,0,1,1,0,0,0,0,0,0,0,0
|1,0,2,0,0,1,0,0,0,0,0,0,1,0,0,0,1,0,0,1,0,0,0,0,0,1,0,0,1,1
|1,0,0,0,0,1,0,0,0,0,0,1,0,0,1,0,1,0,0,1,0,1,0,0,0,1,0,0,1,1
|0,0,0,1,1,0,1,1,0,0,1,0,0,0,0,0,0,0,1,0,1,0,1,0,0,0,1,1,0,0
|0,0,0,1,0,0,1,1,0,1,0,0,0,0,0,0,0,0,1,0,1,0,1,0,1,0,1,1,0,0
|1,0,0,0,0,1,0,0,0,0,0,0,0,0,1,1,1,0,0,1,0,1,0,1,0,1,0,0,0,1
|1,0,0,0,0,0,0,0,1,0,1,0,0,1,0,1,0,1,0,0,1,1,0,0,1,0,0,0,0,1
|1,0,0,0,1,0,0,0,1,0,0,0,0,1,1,0,1,1,0,0,0,1,0,0,0,1,0,0,0,1
|0,0,0,1,0,0,0,1,0,1,1,0,0,1,0,1,0,1,0,0,0,1,1,0,1,0,0,0,0,0
|1,1,0,0,0,0,0,0,1,0,0,0,0,0,1,1,1,0,0,1,0,1,0,0,0,1,0,0,0,1
|0,1,1,0,1,1,0,0,0,0,0,1,1,0,0,0,0,0,0,1,0,0,0,1,0,1,0,0,1,0
|0,0,0,1,0,0,0,1,0,1,1,0,0,1,0,0,0,1,1,0,0,0,0,0,1,0,2,0,0,0
|0,1,1,0,1,0,1,0,1,0,0,1,1,0,1,0,0,0,0,0,0,0,0,1,0,0,0,1,0,0
|1,0,0,0,0,0,1,0,1,0,1,0,0,1,1,1,1,1,0,0,0,0,0,0,0,0,0,0,0,1
|0,1,1,0,1,1,1,0,0,0,0,1,1,0,0,0,1,0,0,0,0,0,0,1,0,0,0,0,1,0
|0,1,0,1,1,0,1,0,0,0,0,0,0,1,0,0,0,0,1,0,1,0,1,0,0,0,1,1,0,0
|1,0,1,0,0,1,0,0,0,0,0,0,1,0,1,0,1,0,0,1,0,0,0,0,0,1,0,0,1,1
|0,0,0,1,0,0,0,1,0,1,1,0,0,1,0,1,0,1,1,0,0,0,0,0,1,0,1,0,0,0
|0,1,1,0,0,1,0,0,0,0,0,1,1,0,0,0,0,0,0,2,0,0,0,1,0,1,0,0,1,0
|0,1,1,0,1,0,1,0,0,0,0,1,1,0,0,0,0,0,0,0,1,0,0,1,0,0,0,0,1,1
|0,0,0,1,0,0,0,2,0,1,1,0,0,0,0,0,0,0,1,0,0,0,1,0,1,0,1,1,0,0
|0,0,0,0,0,0,0,1,0,1,1,0,0,1,1,1,0,1,0,0,0,1,0,0,1,0,0,1,0,0|];

%Games to play:
games=[|4,3|5,2|6,4|6,4|7,2|7,5|8,3|8,6|9,1|9,1|9,2|9,5|9,7|10,1|10,3|10,3|10,6|11,1|11,6|12,4|12,5|12,7|12,8|12,11|13,4|13,7|13,8|13,10|14,1|14,6|15,1|15,9|15,11|15,14|16,1|16,5|16,9|16,14|16,15|17,4|17,8|17,10|17,11|17,14|17,16|18,1|18,2|18,9|18,15|18,16|18,17|19,2|19,3|19,5|19,6|19,12|19,13|20,4|20,8|20,10|20,11|20,14|20,18|20,19|21,2|21,3|21,5|21,7|21,9|21,12|21,13|21,15|22,1|22,7|22,9|22,11|22,14|22,15|22,16|22,17|22,18|23,2|23,3|23,5|23,6|23,7|23,12|23,13|23,17|24,2|24,4|24,5|24,7|24,14|24,19|24,21|24,23|25,1|25,3|25,6|25,13|25,15|25,17|25,20|26,4|26,8|26,10|26,11|26,14|26,16|26,18|26,19|26,25|27,2|27,3|27,6|27,12|27,13|27,20|27,20|27,24|27,26|28,2|28,3|28,5|28,7|28,12|28,13|28,21|28,24|29,4|29,8|29,8|29,10|29,11|29,19|29,23|29,25|29,27|29,28|30,8|30,10|30,11|30,14|30,15|30,16|30,18|30,22|30,25|30,28|];

%%Initial points:
iPoints=[23,22,14,16,32,37,41,19,14,20,31,35,22,18,35,29,25,11,21,24,37,42,36,43,28,20,23,31,29,21];

%POSITION CONSTRAINTS
% [|teamID, operator, position|...]
% operators index:
%  1 for =  operator
%  2 for >  operator
%  3 for >= operator
%  4 for <  operator
%  5 for <= operator
positionConstraints=[|0|]; %No constraints


%RELATIVE POSITION CONSTRAINTS
% [|team1ID, operator, team2ID|...]
% operators index:
%  1 for =  operator
%  2 for >  operator
%  3 for >= operator
%  4 for <  operator
%  5 for <= operator
relativeConstraints=[|1,3,9|5,3,7|1,2,18|];

%FINAL POINT CONSTRAINTS
% [|teamID, operator, wantedPoints|...]
% operators index:
%  1 for =  operator
%  2 for >  operator
%  3 for >= operator
%  4 for <  operator
%  5 for <= operator
finalPointConstraints=[|0|]; %No constraints


